20	5
0	10	8	4	1	7	10	9	3	5	2	6
1	2	16	21
2	2	16	13
3	2	18	20
4	5	19	17	16	13	20
5	0
6	1	15
7	4	16	13	17	18
8	1	12
9	4	18	16	11	14
10	2	16	20
11	3	12	19	15
12	2	17	13
13	1	21
14	1	21
15	1	21
16	1	21
17	1	21
18	1	21
19	1	21
20	1	21
21	0
0	0	0	0	0	0	0
1	9	4	5	4	1	3
2	4	2	5	1	2	5
3	2	4	4	4	5	2
4	4	4	5	3	3	5
5	9	5	4	4	4	1
6	9	5	3	2	3	3
7	5	1	3	3	3	4
8	5	3	2	5	5	1
9	1	2	3	3	5	1
10	2	4	2	4	1	5
11	3	3	1	4	1	3
12	5	1	1	2	1	3
13	3	3	4	5	3	1
14	5	1	1	2	1	4
15	3	5	1	2	5	2
16	4	1	3	3	3	5
17	1	2	1	5	4	3
18	1	1	5	5	3	3
19	4	1	5	2	5	2
20	3	3	5	4	5	3
21	0	0	0	0	0	0
12	12	12	11	12
